Solver command line: ['/home/ffm2000/opt/cplex/cplex/bin/x86-64_linux/cplex']


Welcome to IBM(R) ILOG(R) CPLEX(R) Interactive Optimizer 22.1.1.0
  with Simplex, Mixed Integer & Barrier Optimizers
5725-A06 5725-A29 5724-Y48 5724-Y49 5724-Y54 5724-Y55 5655-Y21
Copyright IBM Corp. 1988, 2022.  All Rights Reserved.

Type 'help' for a list of available commands.
Type 'help' followed by a command name for more
information on commands.

CPLEX> Logfile 'cplex.log' closed.
Logfile 'solver_log_GER_Technology39.log' open.
CPLEX> New value for mixed integer optimality gap tolerance: 0.0002
CPLEX> New value for time limit in seconds: 14400
CPLEX> New value for integrality tolerance: 0
CPLEX> New value for feasibility tolerance: 1e-08
CPLEX> Problem '/tmp/221903.1.RCCS/tmpre348mmi.pyomo.lp' read.
Read time = 0.20 sec. (15.32 ticks)
CPLEX> Problem name         : /tmp/221903.1.RCCS/tmpre348mmi.pyomo.lp
Objective sense      : Minimize
Variables            :   84913  [Nneg: 1,  Box: 84689,  Binary: 157,
                                 General Integer: 66]
Objective nonzeros   :       2
Linear constraints   :  188921  [Less: 93148,  Greater: 9028,  Equal: 86745]
  Nonzeros           :  312833
  RHS nonzeros       :    9059

Variables            : Min LB: 0.000000         Max UB: 1.000000e+10   
Objective nonzeros   : Min   : 0.1187400        Max   : 1.000000       
Linear constraints   :
  Nonzeros           : Min   : 0.02000000       Max   : 505146.4       
  RHS nonzeros       : Min   : 1.000000         Max   : 2.166667e+07   
CPLEX> Version identifier: 22.1.1.0 | 2022-11-28 | 9160aff4d
CPXPARAM_Simplex_Tolerances_Feasibility          1e-08
CPXPARAM_TimeLimit                               14400
CPXPARAM_MIP_Tolerances_MIPGap                   0.00020000000000000001
CPXPARAM_MIP_Tolerances_Integrality              0
Tried aggregator 4 times.
MIP Presolve eliminated 188597 rows and 84558 columns.
MIP Presolve modified 180 coefficients.
Aggregator did 283 substitutions.
Reduced MIP has 41 rows, 72 columns, and 277 nonzeros.
Reduced MIP has 64 binaries, 1 generals, 0 SOSs, and 0 indicators.
Presolve time = 0.12 sec. (169.04 ticks)
Found incumbent of value 1515744.467163 after 0.13 sec. (179.90 ticks)
Probing fixed 3 vars, tightened 9 bounds.
Probing time = 0.00 sec. (0.23 ticks)
Tried aggregator 2 times.
Detecting symmetries...
MIP Presolve eliminated 3 rows and 3 columns.
Aggregator did 1 substitutions.
Reduced MIP has 37 rows, 68 columns, and 266 nonzeros.
Reduced MIP has 61 binaries, 1 generals, 0 SOSs, and 0 indicators.
Presolve time = 0.00 sec. (0.37 ticks)
Probing fixed 0 vars, tightened 2 bounds.
Probing time = 0.00 sec. (0.14 ticks)
Cover probing fixed 0 vars, tightened 7 bounds.
Clique table members: 82.
MIP emphasis: balance optimality and feasibility.
MIP search method: dynamic search.
Parallel mode: deterministic, using up to 32 threads.
Root relaxation solution time = 0.00 sec. (0.73 ticks)

        Nodes                                         Cuts/
   Node  Left     Objective  IInf  Best Integer    Best Bound    ItCnt     Gap

*     0+    0                      1515744.4672    93993.4661            93.80%
*     0+    0                      1437376.0672    93993.4661            93.46%
      0     0   925495.9516    12  1437376.0672   925495.9516       36   35.61%
*     0+    0                       979720.0059   925495.9516             5.53%
*     0+    0                       959241.3962   925495.9516             3.52%
      0     0   948706.0732     9   959241.3962      Cuts: 38       53    1.10%
      0     0   950611.5622    14   959241.3962       Cuts: 5       65    0.90%
      0     0   951115.6686    16   959241.3962      Cuts: 10       73    0.85%
*     0+    0                       956212.5048   951115.6686             0.53%
      0     0   951233.4374    14   956212.5048       Cuts: 4       78    0.52%
      0     0   951662.6856    17   956212.5048       Cuts: 4       88    0.48%
Detecting symmetries...
      0     0   951912.4231    13   956212.5048       Cuts: 5       97    0.45%
*     0+    0                       954564.9567   951912.4231             0.28%
*     0+    0                       953899.0435   951912.4231             0.21%
*     0+    0                       953076.6711   951912.4231             0.12%
Detecting symmetries...

Repeating presolve.
Tried aggregator 2 times.
MIP Presolve eliminated 17 rows and 28 columns.
MIP Presolve added 2 rows and 0 columns.
MIP Presolve modified 25 coefficients.
Aggregator did 12 substitutions.
Reduced MIP has 10 rows, 28 columns, and 85 nonzeros.
Reduced MIP has 24 binaries, 0 generals, 0 SOSs, and 0 indicators.
Presolve time = 0.00 sec. (0.17 ticks)
Probing time = 0.00 sec. (0.01 ticks)
Cover probing fixed 0 vars, tightened 2 bounds.
Tried aggregator 1 time.
Detecting symmetries...
Reduced MIP has 10 rows, 28 columns, and 85 nonzeros.
Reduced MIP has 24 binaries, 0 generals, 0 SOSs, and 0 indicators.
Presolve time = 0.00 sec. (0.06 ticks)
Represolve time = 0.02 sec. (45.76 ticks)
Probing time = 0.00 sec. (0.01 ticks)
Clique table members: 15.
MIP emphasis: balance optimality and feasibility.
MIP search method: dynamic search.
Parallel mode: deterministic, using up to 32 threads.
Root relaxation solution time = 0.00 sec. (0.13 ticks)

        Nodes                                         Cuts/
   Node  Left     Objective  IInf  Best Integer    Best Bound    ItCnt     Gap

*     0+    0                       953076.6711   951912.4231             0.12%
      0     0   951912.4231     9   953076.6711   951912.4231      119    0.12%
Detecting symmetries...
      0     2   951912.4231     9   953076.6711   951912.4231      119    0.12%
Elapsed time = 0.78 sec. (278.80 ticks, tree = 0.02 MB, solutions = 8)

Clique cuts applied:  4
Cover cuts applied:  7
Implied bound cuts applied:  1
Mixed integer rounding cuts applied:  4
Zero-half cuts applied:  2
Gomory fractional cuts applied:  1

Root node processing (before b&c):
  Real time             =    0.56 sec. (283.38 ticks)
Parallel b&c, 32 threads:
  Real time             =    0.27 sec. (1.87 ticks)
  Sync time (average)   =    0.02 sec.
  Wait time (average)   =    0.00 sec.
                          ------------
Total (root+branch&cut) =    0.83 sec. (285.25 ticks)

Solution pool: 8 solutions saved.

MIP - Integer optimal, tolerance (0.0002/1e-06):  Objective =  9.5307667113e+05
Current MIP best bound =  9.5290954298e+05 (gap = 167.128, 0.02%)
Solution time =    0.84 sec.  Iterations = 164  Nodes = 16 (4)
Deterministic time = 285.49 ticks  (340.02 ticks/sec)

CPLEX> Incumbent solution written to file '/tmp/221903.1.RCCS/tmpqocp74us.cplex.sol'.
CPLEX> 
